HUN,8,6,105
3,26,1,23,0,29,2,26,5,30,4,23
0,30,4,24,2,29,1,30,3,29,5,30
5,21,0,27,4,26,2,29,1,24,3,29
4,22,2,22,5,28,3,30,1,25,0,29
1,25,4,28,3,29,0,23,5,23,2,26
3,30,4,29,2,21,0,23,5,29,1,21
0,25,1,27,2,21,4,27,3,23,5,23
0,24,4,27,2,26,3,26,1,25,5,25
